Problem:    
Rows:       174
Columns:    142
Non-zeros:  2269
Status:     OPTIMAL
Objective:  obj = -896644.8219 (MINimum)

   No.   Row name   St   Activity     Lower bound   Upper bound    Marginal
------ ------------ -- ------------- ------------- ------------- -------------
     1 B1           NU          8950                        8950      -26.8139 
     2 B2           B         2332.9                        3300 
     3 B3           B        76.1409                         110 
     4 B4           B       -39.2281                           0 
     5 B5           B           -234                           0 
     6 B6           NU             0                           0      -26.8139 
     7 B7           NU         -2000                       -2000      -14.3985 
     8 B8           NU         -1100                       -1100      -23.3133 
     9 B9           NU          -200                        -200       -15.726 
    10 B10          B           -300                        -100 
    11 B11          NU          -400                        -400      -11.9714 
    12 B12          NU           350                         350      -19.1341 
    13 B13          B        451.615                        1300 
    14 B14          B        551.615                        1120 
    15 B15          NU          -220                        -220      -274.276 
    16 B16          B        3083.84                        3300 
    17 B17          NU          1.01                        1.01      -52.2656 
    18 B18          B       -709.386                        -300 
    19 B19          NU          -200                        -200      -26.1732 
    20 B20          B            200                         500 
    21 B21          B        230.379                         255 
    22 B22          NU           0.5                         0.5      -26.9613 
    23 B23          B        172.284                         240 
    24 B24          NU           170                         170      -232.507 
    25 B25          B              0                          30 
    26 B26          B              0                          50 
    27 B27          B              0                          30 
    28 B28          NU          9775                        9775           -11 
    29 B29          NU          1030                        1030         < eps
    30 B30          B        851.279                         895 
    31 B31          NU           840                         840         < eps
    32 B32          B        828.748                         845 
    33 B33          B        826.162                         835 
    34 B34          B         795.07                         900 
    35 B35          NU           915                         915         < eps
    36 B36          B        931.964                         990 
    37 B37          NU           950                         950         < eps
    38 B38          B        198.835                         980 
    39 B39          B        834.632                         965 
    40 B40          B        768.345                         945 
    41 B41          B        9026.22                        9125 
    42 B42          B        915.108                         930 
    43 B43          B        725.772                         795 
    44 B44          NU           740                         740      -365.451 
    45 B45          B        534.029                         745 
    46 B46          B        519.434                         735 
    47 B47          B         531.32                         800 
    48 B48          NU           815                         815      -35.4962 
    49 B49          B        778.963                         930 
    50 B50          NU           930                         930      -111.392 
    51 B51          NU           930                         930      -161.837 
    52 B52          B        834.632                         930 
    53 B53          B        768.345                         930 
    54 B54          NU        917000                      917000    -0.0024609 
    55 B55          B        71079.9                      150000 
    56 B56          B        19677.1                      100000 
    57 B57          B         114480                      150000 
    58 B58          B        72305.5                      124000 
    59 B59          NU        186000                      186000    -0.0186347 
    60 B60          NU        200000                      200000     -0.357996 
    61 B61          B         167654                      208000 
    62 B62          B        85803.4                      125000 
    63 B63          NU          1.01                        1.01        -0.311 
    64 B64          NU          1.02                        1.02     -0.283921 
    65 B65          NU          1.03                        1.03     -0.605519 
    66 B66          NU          1.04                        1.04     -0.283921 
    67 B67          NU          1.05                        1.05     -0.283921 
    68 B68          NU          1.06                        1.06     -0.283921 
    69 B69          NU          1.07                        1.07     -0.315158 
    70 B70          NU          1.08                        1.08     -0.221272 
    71 B71          NU          1.09                        1.09     -0.303041 
    72 B72          NU           1.1                         1.1     -0.349915 
    73 B73          NU          1.11                        1.11     -0.307254 
    74 B74          NU          1.12                        1.12     -0.283921 
    75 B75          B        -3022.7                        1.13 
    76 B76          B       -18128.7                        1.14 
    77 B77          B       -7337.97                        1.15 
    78 B78          B       -7339.06                        1.16 
    79 B79          B       -7339.03                        1.17 
    80 B80          B          -7339                        1.18 
    81 B81          B       -8995.49                        1.19 
    82 B82          B       -8124.08                         1.2 
    83 B83          B       -2983.31                        1.21 
    84 B84          B       -1756.83                        1.22 
    85 B85          B       -12944.9                        1.23 
    86 B86          B       -17189.5                        1.24 
    87 B87          B       -9334.66                        1.25 
    88 B88          B       -12449.2                        1.26 
    89 B89          B       -12449.2                        1.27 
    90 B90          B         -14177                        1.28 
    91 B91          B         -14177                        1.29 
    92 B92          B       -15904.9                         1.3 
    93 B93          B         -14177                        1.31 
    94 B94          B       -12449.2                        1.32 
    95 B95          B       -12449.2                        1.33 
    96 B96          B       -12449.2                        1.34 
    97 B97          B       -12449.2                        1.35 
    98 B98          B       -12449.2                        1.36 
    99 B99          NU          1.37                        1.37        -0.069 
   100 B100         NU          1.38                        1.38    -0.0419213 
   101 B101         NU          1.39                        1.39     -0.363519 
   102 B102         NU           1.4                         1.4    -0.0419213 
   103 B103         NU          1.41                        1.41    -0.0419213 
   104 B104         NU          1.42                        1.42    -0.0419213 
   105 B105         NU          1.43                        1.43    -0.0731579 
   106 B106         B       -6914.78                        1.44 
   107 B107         NU          1.45                        1.45    -0.0610406 
   108 B108         NU          1.46                        1.46     -0.107915 
   109 B109         NU          1.47                        1.47    -0.0652536 
   110 B110         NU          1.48                        1.48    -0.0419213 
   111 B111         B       -5677.48                        1.49 
   112 B112         B       -10009.4                         1.5 
   113 B113         B       -8233.94                        1.51 
   114 B114         B        -9460.4                        1.52 
   115 B115         B       -1727.96                        1.53 
   116 B116         B       -7273.82                        1.54 
   117 B117         B       -2941.89                        1.55 
   118 B118         B       -4717.36                        1.56 
   119 B119         B        -3490.9                        1.57 
   120 B120         B       -6039.82                        1.58 
   121 B121         B       -11646.8                        1.59 
   122 B122         B       -2672.08                         1.6 
   123 B123         B       -5184.37                        1.61 
   124 B124         B       -6434.63                        1.62 
   125 B125         B       -5540.36                        1.63 
   126 B126         B       -14299.3                        1.64 
   127 B127         B       -14612.7                        1.65 
   128 B128         B       -14612.7                        1.66 
   129 B129         B       -14612.7                        1.67 
   130 B130         B       -14612.7                        1.68 
   131 B131         NU          1.69                        1.69         < eps
   132 B132         NU           1.7                         1.7         < eps
   133 B133         NU          1.71                        1.71    -0.0270787 
   134 B134         B        -6129.6                        1.72 
   135 B135         B        -5185.1                        1.73 
   136 B136         B       -6436.49                        1.74 
   137 B137         B       -5542.23                        1.75 
   138 B138         B         -17755                        1.76 
   139 B139         B       -2023.91                        1.77 
   140 B140         B       -18068.4                        1.78 
   141 B141         B       -18068.4                        1.79 
   142 B142         B       -18068.4                         1.8 
   143 B143         NU          1.81                        1.81    -0.0233323 
   144 B144         B        -2516.8                        1.82 
   145 B145         NU          1.83                        1.83    -0.0178773 
   146 B146         NU          1.84                        1.84    -0.0178773 
   147 B147         NU          1.85                        1.85    -0.0178773 
   148 B148         NU          1.86                        1.86    -0.0178773 
   149 B149         NU          1.87                        1.87    -0.0178773 
   150 B150         NU          1.88                        1.88    -0.0178773 
   151 B151         NU          1.89                        1.89     -0.402699 
   152 B152         NU           1.9                         1.9     -0.161501 
   153 B153         NU          1.91                        1.91     -0.161501 
   154 B154         NU          1.92                        1.92     -0.161501 
   155 B155         B       -17993.4                        1.93 
   156 B156         B       -15014.2                        1.94 
   157 B157         B       -15908.5                        1.95 
   158 B158         B       -1967.99                        1.96 
   159 B159         NU          1.97                        1.97    -0.0819403 
   160 B160         NU          1.98                        1.98     -0.221272 
   161 B161         B        -8239.9                        1.99 
   162 B162         B       -9466.38                        1.01 
   163 B163         B       -12892.7                        1.02 
   164 B164         B       -17392.6                        1.03 
   165 B165         B       -15906.8                        1.04 
   166 B166         B       -15035.4                        1.05 
   167 B167         B       -9894.67                        1.06 
   168 B168         B       -8668.19                        1.07 
   169 B169         B       -5241.85                        1.08 
   170 B170         NU          1.09                        1.09     -0.292119 
   171 B171         NU           1.1                         1.1     -0.274241 
   172 B172         NU          1.11                        1.11     -0.274241 
   173 B173         NU          1.12                        1.12     -0.283921 
   174 B174         B        -896645                        1.13 

   No. Column name  St   Activity     Lower bound   Upper bound    Marginal
------ ------------ -- ------------- ------------- ------------- -------------
     1 A301         B        230.379             0               
     2 A302         B        172.284             0               
     3 A303         B            170             0               
     4 A304         NL             0             0                     2977.04 
     5 A305         NL             0             0                        3005 
     6 A306         NL             0             0                        3006 
     7 A307         NL             0             0                     2774.49 
     8 A308         B        76.1409             0               
     9 A309         NL             0             0                     85.1222 
    10 A310         NL             0             0                     3.44119 
    11 A311         B         165.57             0               
    12 A312         NL             0             0                      132.39 
    13 A313         NL             0             0                     33.9132 
    14 A314         B        12.7353             0               
    15 A315         B        14.3084             0               
    16 A316         B        14.4726             0               
    17 A317         NL             0             0                      163.05 
    18 A318         B        16.5634             0               
    19 A319         NL             0             0                     25.9169 
    20 A320         NL             0             0                     56.4433 
    21 A321         B        26.6072             0               
    22 A322         NL             0             0                     30.0695 
    23 A323         NL             0             0                     39.6408 
    24 A324         B        329.177             0               
    25 A325         NL             0             0                     21.4511 
    26 A326         NL             0             0                     7.05261 
    27 A327         B            390             0               
    28 A328         NL             0             0                    0.390869 
    29 A329         NL             0             0                      4.7651 
    30 A330         B        66.4171             0               
    31 A331         B        263.341             0               
    32 A332         B        1333.26             0               
    33 A333         NL             0             0                     6.56364 
    34 A334         NL             0             0                     3.08346 
    35 A335         B        244.501             0               
    36 A336         B        507.113             0               
    37 A337         B            220             0               
    38 A338         B        475.901             0               
    39 A339         NL             0             0                     50.7187 
    40 A340         B        2374.46             0               
    41 A341         B        709.386             0               
    42 A342         B           1100             0               
    43 A343         NL             0             0                     3.31329 
    44 A344         B            200             0               
    45 A345         B            300             0               
    46 A346         B            400             0               
    47 A347         NL             0             0                     7.77885 
    48 A348         B            200             0               
    49 A349         B        257.722             0               
    50 A350         NL             0             0                       < eps
    51 A351         B        157.941             0               
    52 A352         NL             0             0                       < eps
    53 A353         NL             0             0                       < eps
    54 A354         NL             0             0                       < eps
    55 A355         B           5.23             0               
    56 A356         NL             0             0                       < eps
    57 A357         B        307.408             0               
    58 A358         B        804.063             0               
    59 A359         NL             0             0                       < eps
    60 A360         NL             0             0                       < eps
    61 A361         B        10371.8             0               
    62 A362         B        10371.8             0               
    63 A363         B        3460.49             0               
    64 A364         B         3460.5             0               
    65 A365         B        3460.51             0               
    66 A366         B        3460.52             0               
    67 A367         B        3460.53             0               
    68 A368         NL             0             0                   0.0207284 
    69 A369         B        6916.23             0               
    70 A370         B        6916.24             0               
    71 A371         B        8644.09             0               
    72 A372         B        10371.9             0               
    73 A373         B        3803.67             0               
    74 A374         NL             0             0                   0.0270787 
    75 A375         NL             0             0                   0.0709329 
    76 A376         NL             0             0                   0.0270787 
    77 A377         NL             0             0                   0.0270787 
    78 A378         NL             0             0                   0.0270787 
    79 A379         NL             0             0                   0.0313382 
    80 A380         NL             0             0                   0.0897284 
    81 A381         NL             0             0                    0.119351 
    82 A382         NL             0             0                    0.122921 
    83 A383         NL             0             0                  0.00374636 
    84 A384         NL             0             0                   0.0324419 
    85 A433         B         17.701             0               
    86 A434         B         17.701             0               
    87 A435         B         17.701             0               
    88 A436         B         17.701             0               
    89 A437         NL             0             0                     16.1732 
    90 A385         B        3.45385             0               
    91 A386         B        3.45384             0               
    92 A387         B        3.45383             0               
    93 A388         B        3.45382             0               
    94 A389         B        3.45381             0               
    95 A390         NL             0             0                     17.8773 
    96 A391         NL             0             0                     17.8773 
    97 A392         NL             0             0                     80.5271 
    98 A393         NL             0             0                      96.783 
    99 A394         NL             0             0                     94.2996 
   100 A395         NL             0             0                     17.8773 
   101 A396         B         3.4538             0               
   102 A397         B        4.25803             0               
   103 A398         B        11.9407             0               
   104 A399         B        9.42838             0               
   105 A400         B        8.17812             0               
   106 A401         B        9.07239             0               
   107 A402         B       0.313471             0               
   108 A403         NL             0             0                       < eps
   109 A404         NL             0             0                     62.6497 
   110 A405         NL             0             0                     78.9056 
   111 A406         NL             0             0                     76.4222 
   112 A407         B        14.6144             0               
   113 A408         B        14.6144             0               
   114 A409         B        15.1061             0               
   115 A410         NL             0             0                       < eps
   116 A411         NL             0             0                       < eps
   117 A412         NL             0             0                       < eps
   118 A413         NL             0             0                       < eps
   119 A414         NL             0             0                       < eps
   120 A415         B        16.0445             0               
   121 A416         NL             0             0                     62.6497 
   122 A417         NL             0             0                     78.9056 
   123 A418         NL             0             0                     76.4222 
   124 A419         B        6.91148             0               
   125 A420         B       0.939062             0               
   126 A421         NL             0             0                        9.68 
   127 A422         NL             0             0                        9.68 
   128 A424         NL             0             0                        9.68 
   129 A425         NL             0             0                        9.68 
   130 A426         NL             0             0                        9.68 
   131 A427         NL             0             0                        9.68 
   132 A428         NL             0             0                     72.3297 
   133 A429         NL             0             0                     88.5856 
   134 A430         NL             0             0                     86.1022 
   135 A431         NL             0             0                        9.68 
   136 A432         NL             0             0                        9.68 
   137 A423         B        0.00112             0               
   138 A438         B        2708.49             0               
   139 A439         NL             0             0                    0.303041 
   140 A440         NL             0             0                    0.349915 
   141 A441         NL             0             0                    0.307254 
   142 A442         NL             0             0                    0.283921 

Karush-Kuhn-Tucker optimality conditions:

KKT.PE: max.abs.err = 1.46e-11 on row 72
        max.rel.err = 2.06e-16 on row 152
        High quality

KKT.PB: max.abs.err = 0.00e+00 on row 0
        max.rel.err = 0.00e+00 on row 0
        High quality

KKT.DE: max.abs.err = 1.82e-12 on column 1
        max.rel.err = 3.43e-15 on column 4
        High quality

KKT.DB: max.abs.err = 1.49e-15 on row 35
        max.rel.err = 1.49e-15 on row 35
        High quality

End of output
